objective value:                                11429
t_x_0                                               1 	(obj:8)
t_x_2                                               1 	(obj:47)
t_x_3                                               1 	(obj:45)
t_x_4                                               1 	(obj:16)
t_x_8                                               1 	(obj:49)
t_x_14                                              1 	(obj:21)
t_x_15                                              1 	(obj:22)
t_x_16                                              1 	(obj:14)
t_x_20                                              1 	(obj:1)
t_x_22                                              1 	(obj:40)
t_x_24                                              1 	(obj:11)
t_x_31                                              1 	(obj:23)
t_x_33                                              1 	(obj:4)
t_x_35                                              1 	(obj:24)
t_x_40                                              1 	(obj:15)
t_x_41                                              1 	(obj:9)
t_x_42                                              1 	(obj:16)
t_x_43                                              1 	(obj:23)
t_x_46                                              1 	(obj:9)
t_x_48                                              1 	(obj:26)
t_x_51                                              1 	(obj:10)
t_x_57                                              1 	(obj:23)
t_x_60                                              1 	(obj:4)
t_x_62                                              1 	(obj:27)
t_x_64                                              1 	(obj:9)
t_x_65                                              1 	(obj:36)
t_x_66                                              1 	(obj:23)
t_x_68                                              1 	(obj:18)
t_x_73                                              1 	(obj:38)
t_x_76                                              1 	(obj:9)
t_x_77                                              1 	(obj:13)
t_x_78                                              1 	(obj:25)
t_x_79                                              1 	(obj:28)
t_x_80                                              1 	(obj:12)
t_x_82                                              1 	(obj:3)
t_x_84                                              1 	(obj:36)
t_x_86                                              1 	(obj:41)
t_x_87                                              1 	(obj:6)
t_x_89                                              1 	(obj:23)
t_x_94                                              1 	(obj:27)
t_x_95                                              1 	(obj:20)
t_x_98                                              1 	(obj:3)
t_x_99                                              1 	(obj:0)
t_x_100                                             1 	(obj:4)
t_x_106                                             1 	(obj:4)
t_x_107                                             1 	(obj:19)
t_x_108                                             1 	(obj:0)
t_x_111                                             1 	(obj:13)
t_x_115                                             1 	(obj:16)
t_x_116                                             1 	(obj:58)
t_x_119                                             1 	(obj:5)
t_x_120                                             1 	(obj:15)
t_x_122                                             1 	(obj:20)
t_x_126                                             1 	(obj:10)
t_x_127                                             1 	(obj:31)
t_x_131                                             1 	(obj:6)
t_x_134                                             1 	(obj:14)
t_x_144                                             1 	(obj:9)
t_x_145                                             1 	(obj:21)
t_x_147                                             1 	(obj:5)
t_x_155                                             1 	(obj:1)
t_x_157                                             1 	(obj:11)
t_x_159                                             1 	(obj:47)
t_x_169                                             1 	(obj:20)
t_x_171                                             1 	(obj:37)
t_x_173                                             1 	(obj:13)
t_x_174                                             1 	(obj:13)
t_x_178                                             1 	(obj:12)
t_x_184                                             1 	(obj:32)
t_x_185                                             1 	(obj:5)
t_x_187                                             1 	(obj:35)
t_x_189                                             1 	(obj:3)
t_x_194                                             1 	(obj:7)
t_x_195                                             1 	(obj:10)
t_x_198                                             1 	(obj:5)
t_x_204                                             1 	(obj:4)
t_x_208                                             1 	(obj:10)
t_x_210                                             1 	(obj:18)
t_x_212                                             1 	(obj:13)
t_x_217                                             1 	(obj:3)
t_x_218                                             1 	(obj:5)
t_x_219                                             1 	(obj:22)
t_x_228                                             1 	(obj:24)
t_x_231                                             1 	(obj:35)
t_x_232                                             1 	(obj:7)
t_x_233                                             1 	(obj:18)
t_x_236                                             1 	(obj:38)
t_x_244                                             1 	(obj:29)
t_x_250                                             1 	(obj:0)
t_x_252                                             1 	(obj:11)
t_x_255                                             1 	(obj:9)
t_x_259                                             1 	(obj:35)
t_x_262                                             1 	(obj:46)
t_x_265                                             1 	(obj:15)
t_x_268                                             1 	(obj:0)
t_x_269                                             1 	(obj:7)
t_x_282                                             1 	(obj:20)
t_x_284                                             1 	(obj:58)
t_x_290                                             1 	(obj:5)
t_x_291                                             1 	(obj:7)
t_x_293                                             1 	(obj:8)
t_x_294                                             1 	(obj:39)
t_x_295                                             1 	(obj:6)
t_x_303                                             1 	(obj:68)
t_x_305                                             1 	(obj:5)
t_x_306                                             1 	(obj:50)
t_x_308                                             1 	(obj:15)
t_x_311                                             1 	(obj:62)
t_x_312                                             1 	(obj:11)
t_x_318                                             1 	(obj:2)
t_x_325                                             1 	(obj:8)
t_x_331                                             1 	(obj:70)
t_x_334                                             1 	(obj:38)
t_x_335                                             1 	(obj:6)
t_x_341                                             1 	(obj:1)
t_x_344                                             1 	(obj:4)
t_x_345                                             1 	(obj:21)
t_x_348                                             1 	(obj:5)
t_x_353                                             1 	(obj:41)
t_x_358                                             1 	(obj:17)
t_x_363                                             1 	(obj:9)
t_x_366                                             1 	(obj:17)
t_x_369                                             1 	(obj:11)
t_x_371                                             1 	(obj:22)
t_x_380                                             1 	(obj:21)
t_x_382                                             1 	(obj:10)
t_x_383                                             1 	(obj:57)
t_x_386                                             1 	(obj:14)
t_x_388                                             1 	(obj:33)
t_x_390                                             1 	(obj:27)
t_x_392                                             1 	(obj:26)
t_x_395                                             1 	(obj:15)
t_x_397                                             1 	(obj:18)
t_x_400                                             1 	(obj:11)
t_x_402                                             1 	(obj:19)
t_x_409                                             1 	(obj:30)
t_x_414                                             1 	(obj:25)
t_x_416                                             1 	(obj:16)
t_x_418                                             1 	(obj:19)
t_x_423                                             1 	(obj:3)
t_x_427                                             1 	(obj:0)
t_x_435                                             1 	(obj:27)
t_x_436                                             1 	(obj:8)
t_x_437                                             1 	(obj:11)
t_x_443                                             1 	(obj:8)
t_x_444                                             1 	(obj:0)
t_x_448                                             1 	(obj:14)
t_x_454                                             1 	(obj:55)
t_x_458                                             1 	(obj:9)
t_x_462                                             1 	(obj:11)
t_x_466                                             1 	(obj:27)
t_x_468                                             1 	(obj:8)
t_x_469                                             1 	(obj:10)
t_x_471                                             1 	(obj:14)
t_x_475                                             1 	(obj:26)
t_x_476                                             1 	(obj:18)
t_x_479                                             1 	(obj:43)
t_x_480                                             1 	(obj:13)
t_x_481                                             1 	(obj:28)
t_x_482                                             1 	(obj:37)
t_x_486                                             1 	(obj:21)
t_x_487                                             1 	(obj:72)
t_x_488                                             1 	(obj:33)
t_x_490                                             1 	(obj:14)
t_x_494                                             1 	(obj:16)
t_x_501                                             1 	(obj:16)
t_x_502                                             1 	(obj:51)
t_x_503                                             1 	(obj:50)
t_x_504                                             1 	(obj:3)
t_x_506                                             1 	(obj:1)
t_x_509                                             1 	(obj:33)
t_x_510                                             1 	(obj:6)
t_x_513                                             1 	(obj:6)
t_x_516                                             1 	(obj:26)
t_x_518                                             1 	(obj:13)
t_x_524                                             1 	(obj:13)
t_x_530                                             1 	(obj:0)
t_x_534                                             1 	(obj:43)
t_x_536                                             1 	(obj:20)
t_x_537                                             1 	(obj:27)
t_x_539                                             1 	(obj:15)
t_x_541                                             1 	(obj:64)
t_x_542                                             1 	(obj:25)
t_x_544                                             1 	(obj:26)
t_x_547                                             1 	(obj:11)
t_x_551                                             1 	(obj:9)
t_x_556                                             1 	(obj:20)
t_x_561                                             1 	(obj:12)
t_x_563                                             1 	(obj:12)
t_x_564                                             1 	(obj:18)
t_x_572                                             1 	(obj:23)
t_x_575                                             1 	(obj:28)
t_x_578                                             1 	(obj:5)
t_x_579                                             1 	(obj:7)
t_x_583                                             1 	(obj:10)
t_x_584                                             1 	(obj:20)
t_x_587                                             1 	(obj:21)
t_x_592                                             1 	(obj:28)
t_x_598                                             1 	(obj:5)
t_x_600                                             1 	(obj:47)
t_x_610                                             1 	(obj:46)
t_x_611                                             1 	(obj:19)
t_x_617                                             1 	(obj:25)
t_x_619                                             1 	(obj:15)
t_x_621                                             1 	(obj:51)
t_x_637                                             1 	(obj:25)
t_x_642                                             1 	(obj:4)
t_x_644                                             1 	(obj:30)
t_x_645                                             1 	(obj:23)
t_x_661                                             1 	(obj:77)
t_x_664                                             1 	(obj:50)
t_x_665                                             1 	(obj:11)
t_x_668                                             1 	(obj:14)
t_x_670                                             1 	(obj:15)
t_x_671                                             1 	(obj:12)
t_x_676                                             1 	(obj:11)
t_x_680                                             1 	(obj:9)
t_x_681                                             1 	(obj:15)
t_x_683                                             1 	(obj:12)
t_x_684                                             1 	(obj:26)
t_x_685                                             1 	(obj:29)
t_x_688                                             1 	(obj:38)
t_x_696                                             1 	(obj:6)
t_x_698                                             1 	(obj:37)
t_x_701                                             1 	(obj:10)
t_x_704                                             1 	(obj:4)
t_x_710                                             1 	(obj:23)
t_x_713                                             1 	(obj:16)
t_x_716                                             1 	(obj:16)
t_x_719                                             1 	(obj:8)
t_x_720                                             1 	(obj:10)
t_x_721                                             1 	(obj:5)
t_x_723                                             1 	(obj:9)
t_x_730                                             1 	(obj:6)
t_x_741                                             1 	(obj:13)
t_x_744                                             1 	(obj:27)
t_x_746                                             1 	(obj:18)
t_x_750                                             1 	(obj:17)
t_x_759                                             1 	(obj:3)
t_x_763                                             1 	(obj:3)
t_x_764                                             1 	(obj:24)
t_x_769                                             1 	(obj:16)
t_x_778                                             1 	(obj:46)
t_x_780                                             1 	(obj:4)
t_x_781                                             1 	(obj:0)
t_x_787                                             1 	(obj:3)
t_x_794                                             1 	(obj:28)
t_x_798                                             1 	(obj:84)
t_x_809                                             1 	(obj:11)
t_x_812                                             1 	(obj:11)
t_x_816                                             1 	(obj:10)
t_x_817                                             1 	(obj:1)
t_x_827                                             1 	(obj:7)
t_x_831                                             1 	(obj:2)
t_x_836                                             1 	(obj:9)
t_x_837                                             1 	(obj:33)
t_x_838                                             1 	(obj:29)
t_x_839                                             1 	(obj:34)
t_x_844                                             1 	(obj:23)
t_x_848                                             1 	(obj:28)
t_x_850                                             1 	(obj:0)
t_x_851                                             1 	(obj:17)
t_x_854                                             1 	(obj:8)
t_x_859                                             1 	(obj:1)
t_x_861                                             1 	(obj:16)
t_x_862                                             1 	(obj:2)
t_x_863                                             1 	(obj:7)
t_x_864                                             1 	(obj:19)
t_x_865                                             1 	(obj:31)
t_x_870                                             1 	(obj:10)
t_x_871                                             1 	(obj:8)
t_x_873                                             1 	(obj:3)
t_x_876                                             1 	(obj:22)
t_x_877                                             1 	(obj:24)
t_x_878                                             1 	(obj:28)
t_x_879                                             1 	(obj:29)
t_x_882                                             1 	(obj:5)
t_x_884                                             1 	(obj:14)
t_x_887                                             1 	(obj:10)
t_x_892                                             1 	(obj:2)
t_x_896                                             1 	(obj:21)
t_x_897                                             1 	(obj:35)
t_x_899                                             1 	(obj:21)
t_x_900                                             1 	(obj:6)
t_x_902                                             1 	(obj:24)
t_x_906                                             1 	(obj:4)
t_x_911                                             1 	(obj:22)
t_x_913                                             1 	(obj:45)
t_x_918                                             1 	(obj:26)
t_x_919                                             1 	(obj:7)
t_x_926                                             1 	(obj:36)
t_x_929                                             1 	(obj:27)
t_x_934                                             1 	(obj:30)
t_x_942                                             1 	(obj:41)
t_x_944                                             1 	(obj:16)
t_x_946                                             1 	(obj:12)
t_x_947                                             1 	(obj:3)
t_x_948                                             1 	(obj:14)
t_x_949                                             1 	(obj:9)
t_x_951                                             1 	(obj:39)
t_x_952                                             1 	(obj:7)
t_x_956                                             1 	(obj:2)
t_x_962                                             1 	(obj:17)
t_x_964                                             1 	(obj:41)
t_x_966                                             1 	(obj:13)
t_x_970                                             1 	(obj:26)
t_x_971                                             1 	(obj:22)
t_x_972                                             1 	(obj:30)
t_x_973                                             1 	(obj:9)
t_x_975                                             1 	(obj:23)
t_x_986                                             1 	(obj:15)
t_x_991                                             1 	(obj:5)
t_x_995                                             1 	(obj:84)
t_x_996                                             1 	(obj:11)
t_x_998                                             1 	(obj:24)
t_x_1001                                            1 	(obj:28)
t_x_1004                                            1 	(obj:43)
t_x_1015                                            1 	(obj:35)
t_x_1017                                            1 	(obj:27)
t_x_1021                                            1 	(obj:21)
t_x_1026                                            1 	(obj:15)
t_x_1029                                            1 	(obj:39)
t_x_1030                                            1 	(obj:35)
t_x_1031                                            1 	(obj:26)
t_x_1032                                            1 	(obj:17)
t_x_1033                                            1 	(obj:25)
t_x_1042                                            1 	(obj:27)
t_x_1046                                            1 	(obj:35)
t_x_1047                                            1 	(obj:15)
t_x_1064                                            1 	(obj:6)
t_x_1066                                            1 	(obj:0)
t_x_1067                                            1 	(obj:22)
t_x_1069                                            1 	(obj:4)
t_x_1070                                            1 	(obj:11)
t_x_1072                                            1 	(obj:9)
t_x_1079                                            1 	(obj:7)
t_x_1086                                            1 	(obj:7)
t_x_1089                                            1 	(obj:23)
t_x_1090                                            1 	(obj:34)
t_x_1092                                            1 	(obj:18)
t_x_1095                                            1 	(obj:12)
t_x_1098                                            1 	(obj:1)
t_x_1101                                            1 	(obj:0)
t_x_1103                                            1 	(obj:57)
t_x_1107                                            1 	(obj:22)
t_x_1109                                            1 	(obj:5)
t_x_1110                                            1 	(obj:50)
t_x_1111                                            1 	(obj:39)
t_x_1112                                            1 	(obj:2)
t_x_1117                                            1 	(obj:5)
t_x_1122                                            1 	(obj:32)
t_x_1134                                            1 	(obj:30)
t_x_1141                                            1 	(obj:26)
t_x_1146                                            1 	(obj:18)
t_x_1148                                            1 	(obj:7)
t_x_1149                                            1 	(obj:53)
t_x_1156                                            1 	(obj:5)
t_x_1158                                            1 	(obj:9)
t_x_1160                                            1 	(obj:25)
t_x_1163                                            1 	(obj:16)
t_x_1164                                            1 	(obj:10)
t_x_1165                                            1 	(obj:0)
t_x_1168                                            1 	(obj:17)
t_x_1169                                            1 	(obj:38)
t_x_1170                                            1 	(obj:1)
t_x_1171                                            1 	(obj:82)
t_x_1173                                            1 	(obj:19)
t_x_1178                                            1 	(obj:22)
t_x_1187                                            1 	(obj:8)
t_x_1193                                            1 	(obj:12)
t_x_1196                                            1 	(obj:1)
t_x_1200                                            1 	(obj:8)
t_x_1205                                            1 	(obj:58)
t_x_1206                                            1 	(obj:7)
t_x_1208                                            1 	(obj:12)
t_x_1210                                            1 	(obj:1)
t_x_1211                                            1 	(obj:21)
t_x_1215                                            1 	(obj:10)
t_x_1218                                            1 	(obj:9)
t_x_1219                                            1 	(obj:13)
t_x_1237                                            1 	(obj:10)
t_x_1239                                            1 	(obj:18)
t_x_1242                                            1 	(obj:10)
t_x_1246                                            1 	(obj:15)
t_x_1248                                            1 	(obj:16)
t_x_1251                                            1 	(obj:80)
t_x_1255                                            1 	(obj:2)
t_x_1256                                            1 	(obj:28)
t_x_1257                                            1 	(obj:0)
t_x_1260                                            1 	(obj:1)
t_x_1266                                            1 	(obj:39)
t_x_1268                                            1 	(obj:0)
t_x_1275                                            1 	(obj:17)
t_x_1277                                            1 	(obj:33)
t_x_1279                                            1 	(obj:18)
t_x_1288                                            1 	(obj:12)
t_x_1295                                            1 	(obj:21)
t_x_1302                                            1 	(obj:21)
t_x_1305                                            1 	(obj:4)
t_x_1306                                            1 	(obj:9)
t_x_1308                                            1 	(obj:26)
t_x_1309                                            1 	(obj:22)
t_x_1310                                            1 	(obj:13)
t_x_1311                                            1 	(obj:24)
t_x_1318                                            1 	(obj:98)
t_x_1323                                            1 	(obj:8)
t_x_1326                                            1 	(obj:10)
t_x_1329                                            1 	(obj:16)
t_x_1332                                            1 	(obj:6)
t_x_1335                                            1 	(obj:9)
t_x_1336                                            1 	(obj:2)
t_x_1337                                            1 	(obj:3)
t_x_1341                                            1 	(obj:5)
t_x_1342                                            1 	(obj:38)
t_x_1344                                            1 	(obj:16)
t_x_1346                                            1 	(obj:2)
t_x_1359                                            1 	(obj:3)
t_x_1362                                            1 	(obj:1)
t_x_1366                                            1 	(obj:5)
t_x_1367                                            1 	(obj:0)
t_x_1372                                            1 	(obj:22)
t_x_1376                                            1 	(obj:27)
t_x_1378                                            1 	(obj:8)
t_x_1380                                            1 	(obj:32)
t_x_1382                                            1 	(obj:31)
t_x_1383                                            1 	(obj:9)
t_x_1385                                            1 	(obj:25)
t_x_1388                                            1 	(obj:9)
t_x_1392                                            1 	(obj:3)
t_x_1393                                            1 	(obj:17)
t_x_1398                                            1 	(obj:25)
t_x_1400                                            1 	(obj:17)
t_x_1402                                            1 	(obj:24)
t_x_1404                                            1 	(obj:28)
t_x_1406                                            1 	(obj:17)
t_x_1409                                            1 	(obj:17)
t_x_1413                                            1 	(obj:4)
t_x_1418                                            1 	(obj:12)
t_x_1422                                            1 	(obj:11)
t_x_1423                                            1 	(obj:40)
t_x_1425                                            1 	(obj:13)
t_x_1430                                            1 	(obj:21)
t_x_1438                                            1 	(obj:46)
t_x_1439                                            1 	(obj:14)
t_x_1441                                            1 	(obj:5)
t_x_1445                                            1 	(obj:26)
t_x_1451                                            1 	(obj:28)
t_x_1452                                            1 	(obj:25)
t_x_1455                                            1 	(obj:11)
t_x_1456                                            1 	(obj:40)
t_x_1457                                            1 	(obj:32)
t_x_1458                                            1 	(obj:44)
t_x_1463                                            1 	(obj:18)
t_x_1464                                            1 	(obj:10)
t_x_1466                                            1 	(obj:7)
t_x_1467                                            1 	(obj:8)
t_x_1469                                            1 	(obj:13)
t_x_1472                                            1 	(obj:33)
t_x_1473                                            1 	(obj:23)
t_x_1479                                            1 	(obj:18)
t_x_1489                                            1 	(obj:32)
t_x_1490                                            1 	(obj:20)
t_x_1491                                            1 	(obj:20)
t_x_1492                                            1 	(obj:0)
t_x_1501                                            1 	(obj:18)
t_x_1505                                            1 	(obj:55)
t_x_1510                                            1 	(obj:1)
t_x_1511                                            1 	(obj:12)
t_x_1522                                            1 	(obj:5)
t_x_1529                                            1 	(obj:12)
t_x_1530                                            1 	(obj:19)
t_x_1534                                            1 	(obj:6)
t_x_1536                                            1 	(obj:8)
t_x_1538                                            1 	(obj:8)
t_x_1540                                            1 	(obj:10)
t_x_1545                                            1 	(obj:1)
t_x_1551                                            1 	(obj:18)
t_x_1560                                            1 	(obj:10)
t_x_1562                                            1 	(obj:4)
t_x_1563                                            1 	(obj:53)
t_x_1566                                            1 	(obj:39)
t_x_1569                                            1 	(obj:17)
t_x_1570                                            1 	(obj:14)
t_x_1579                                            1 	(obj:6)
t_x_1581                                            1 	(obj:46)
t_x_1583                                            1 	(obj:6)
t_x_1588                                            1 	(obj:45)
t_x_1590                                            1 	(obj:48)
t_x_1592                                            1 	(obj:4)
t_x_1599                                            1 	(obj:49)
t_x_1604                                            1 	(obj:34)
t_x_1607                                            1 	(obj:19)
t_x_1608                                            1 	(obj:15)
t_x_1609                                            1 	(obj:35)
t_x_1611                                            1 	(obj:31)
t_x_1613                                            1 	(obj:0)
t_x_1614                                            1 	(obj:23)
t_x_1621                                            1 	(obj:13)
t_x_1632                                            1 	(obj:24)
t_x_1636                                            1 	(obj:26)
t_x_1637                                            1 	(obj:34)
t_x_1642                                            1 	(obj:32)
t_x_1644                                            1 	(obj:31)
t_x_1646                                            1 	(obj:48)
t_x_1652                                            1 	(obj:45)
t_x_1654                                            1 	(obj:0)
t_x_1655                                            1 	(obj:5)
t_x_1667                                            1 	(obj:29)
t_x_1668                                            1 	(obj:2)
t_x_1676                                            1 	(obj:18)
t_x_1677                                            1 	(obj:4)
t_x_1678                                            1 	(obj:5)
t_x_1679                                            1 	(obj:15)
t_x_1681                                            1 	(obj:2)
t_x_1684                                            1 	(obj:26)
t_x_1691                                            1 	(obj:22)
t_x_1697                                            1 	(obj:48)
t_x_1700                                            1 	(obj:9)
t_x_1715                                            1 	(obj:5)
t_x_1717                                            1 	(obj:27)
t_x_1722                                            1 	(obj:8)
t_x_1732                                            1 	(obj:4)
t_x_1737                                            1 	(obj:10)
t_x_1738                                            1 	(obj:15)
t_x_1741                                            1 	(obj:3)
t_x_1742                                            1 	(obj:19)
t_x_1743                                            1 	(obj:13)
t_x_1746                                            1 	(obj:54)
t_x_1748                                            1 	(obj:3)
t_x_1752                                            1 	(obj:4)
t_x_1755                                            1 	(obj:30)
t_x_1756                                            1 	(obj:21)
t_x_1760                                            1 	(obj:13)
t_x_1762                                            1 	(obj:42)
t_x_1763                                            1 	(obj:18)
t_x_1764                                            1 	(obj:7)
t_x_1766                                            1 	(obj:7)
t_x_1767                                            1 	(obj:0)
t_x_1771                                            1 	(obj:9)
t_x_1772                                            1 	(obj:8)
t_x_1777                                            1 	(obj:7)
t_x_1778                                            1 	(obj:19)
t_x_1781                                            1 	(obj:30)
t_x_1788                                            1 	(obj:20)
t_x_1797                                            1 	(obj:2)
t_x_1799                                            1 	(obj:5)
t_x_1803                                            1 	(obj:7)
t_x_1805                                            1 	(obj:7)
t_x_1824                                            1 	(obj:8)
t_x_1825                                            1 	(obj:9)
t_x_1826                                            1 	(obj:7)
t_x_1827                                            1 	(obj:6)
t_x_1832                                            1 	(obj:16)
t_x_1833                                            1 	(obj:21)
t_x_1834                                            1 	(obj:3)
t_x_1839                                            1 	(obj:54)
t_x_1843                                            1 	(obj:36)
t_x_1847                                            1 	(obj:31)
t_x_1849                                            1 	(obj:31)
t_x_1850                                            1 	(obj:6)
t_x_1852                                            1 	(obj:24)
t_x_1855                                            1 	(obj:1)
t_x_1857                                            1 	(obj:0)
t_x_1865                                            1 	(obj:10)
t_x_1868                                            1 	(obj:28)
t_x_1875                                            1 	(obj:21)
t_x_1877                                            1 	(obj:27)
t_x_1886                                            1 	(obj:22)
t_x_1891                                            1 	(obj:26)
t_x_1894                                            1 	(obj:0)
t_x_1896                                            1 	(obj:0)
t_x_1897                                            1 	(obj:16)
t_x_1900                                            1 	(obj:14)
t_x_1902                                            1 	(obj:21)
t_x_1909                                            1 	(obj:53)
t_x_1910                                            1 	(obj:4)
t_x_1912                                            1 	(obj:11)
t_x_1920                                            1 	(obj:5)
t_x_1921                                            1 	(obj:26)
t_x_1932                                            1 	(obj:18)
t_x_1937                                            1 	(obj:4)
t_x_1938                                            1 	(obj:47)
t_x_1940                                            1 	(obj:16)
t_x_1943                                            1 	(obj:50)
t_x_1944                                            1 	(obj:38)
t_x_1949                                            1 	(obj:17)
t_x_1953                                            1 	(obj:30)
t_x_1954                                            1 	(obj:6)
t_x_1958                                            1 	(obj:26)
t_x_1960                                            1 	(obj:14)
t_x_1965                                            1 	(obj:67)
t_x_1971                                            1 	(obj:0)
t_x_1979                                            1 	(obj:33)
t_x_1982                                            1 	(obj:15)
t_x_1988                                            1 	(obj:13)
t_x_1995                                            1 	(obj:6)
